NAME: test68
TYPE: TSP
DIMENSION: 15
EDGE_WEIGHT_TYPE: EUC_2D
NODE_COORD_SECTION
1 99.60307842653732 62.26383022533163
2 60.33043710260332 76.43155196246592
3 18.617690196736824 63.2918900160192
4 53.31345461532301 3.748437399345539
5 98.97973078838146 24.220075691003963
6 35.851431409837964 70.22403698137379
7 17.46431871823909 9.913500197936786
8 85.91812000110696 79.6249218296117
9 81.15821716655215 17.591301782579617
10 0.08308517648458746 1.414235072406289
11 38.55692287611143 51.32923953988025
12 78.15372851927022 52.81842731969765
13 45.78324559408482 48.01791579440423
14 68.89513012774896 24.952978262196403
15 85.7216035060801 13.162632422790498
EOF
